========================================================== 
File name: C:\DEGR\assets\definitions\MSRCPSP_Gen\100_40_64_5_C.def
Creation date: Wed May 03 10:39:26 CEST 2023
Website: http://imopse.ii.pwr.edu.pl/ 
Reference: 
Myszkowski P. B., Skowronski M. E., Olech L., Oslizlo K., 
Hybrid Ant Colony Optimization in solving Multi-Skill Resource-Constrained Project Scheduling Problem, 
Soft Computing, DOI: DOI 10.1007/s00500-014-1455-x 
========================================================== 
General characteristics: 
Tasks: 100
Resources: 40
Precedence relations: 63
Number of skill types: 5
========================================================== 
ResourceID 	 Salary 	 Skills 
1	 	 	40.2	 	 Q3: 1 	  Q1: 3 	  Q4: 3 	  Q2: 1 	 
2	 	 	65.6	 	 Q0: 3 	  Q1: 1 	 
3	 	 	87.6	 	 Q4: 0 	 
4	 	 	21.5	 	 Q2: 3 	  Q1: 0 	  Q4: 1 	 
5	 	 	45.1	 	 Q4: 2 	  Q0: 3 	  Q1: 1 	 
6	 	 	44.0	 	 Q2: 3 	 
7	 	 	85.9	 	 Q2: 0 	  Q4: 2 	  Q0: 1 	  Q1: 1 	 
8	 	 	60.2	 	 Q1: 1 	  Q3: 0 	  Q2: 0 	  Q0: 2 	 
9	 	 	76.2	 	 Q0: 2 	  Q2: 3 	 
10	 	 	64.4	 	 Q1: 3 	  Q0: 3 	  Q4: 0 	  Q3: 1 	 
11	 	 	92.2	 	 Q3: 2 	  Q2: 0 	  Q1: 0 	 
12	 	 	23.5	 	 Q0: 1 	 
13	 	 	79.7	 	 Q0: 1 	  Q1: 1 	  Q3: 1 	 
14	 	 	81.0	 	 Q3: 0 	  Q2: 1 	 
15	 	 	97.5	 	 Q3: 1 	  Q2: 0 	  Q0: 2 	 
16	 	 	23.7	 	 Q4: 3 	  Q1: 1 	  Q3: 1 	 
17	 	 	95.7	 	 Q1: 2 	 
18	 	 	72.9	 	 Q4: 1 	  Q1: 2 	  Q2: 1 	 
19	 	 	51.7	 	 Q0: 1 	  Q3: 3 	 
20	 	 	56.0	 	 Q4: 0 	  Q3: 3 	  Q2: 0 	  Q0: 0 	 
21	 	 	19.8	 	 Q0: 1 	 
22	 	 	48.7	 	 Q3: 0 	  Q4: 0 	  Q2: 1 	 
23	 	 	48.1	 	 Q0: 3 	  Q3: 2 	 
24	 	 	31.8	 	 Q2: 1 	  Q0: 1 	  Q4: 0 	 
25	 	 	53.6	 	 Q4: 2 	  Q3: 2 	  Q1: 3 	 
26	 	 	58.3	 	 Q0: 1 	  Q2: 1 	 
27	 	 	98.4	 	 Q1: 3 	  Q2: 0 	  Q0: 0 	 
28	 	 	47.3	 	 Q2: 0 	  Q3: 0 	  Q4: 0 	  Q0: 0 	 
29	 	 	93.6	 	 Q0: 0 	 
30	 	 	59.7	 	 Q3: 0 	  Q4: 3 	 
31	 	 	52.0	 	 Q1: 1 	  Q4: 3 	  Q0: 0 	 
32	 	 	32.6	 	 Q2: 3 	 
33	 	 	36.8	 	 Q0: 2 	  Q3: 3 	  Q2: 0 	  Q1: 0 	 
34	 	 	79.7	 	 Q1: 3 	  Q0: 3 	  Q2: 2 	  Q4: 2 	 
35	 	 	61.1	 	 Q0: 0 	  Q3: 0 	  Q2: 3 	  Q1: 3 	 
36	 	 	32.3	 	 Q4: 3 	  Q1: 0 	 
37	 	 	68.3	 	 Q3: 3 	  Q1: 1 	  Q4: 2 	  Q2: 0 	 
38	 	 	69.6	 	 Q3: 0 	 
39	 	 	70.0	 	 Q3: 0 	  Q2: 2 	  Q4: 3 	  Q0: 1 	 
40	 	 	21.5	 	 Q4: 3 	 
========================================================== 
TaskID 	 Duration 	 Skill 	 Predecessor IDs 
1	23	Q4:	2
2	19	Q0:	0	1
3	36	Q0:	1
4	38	Q3:	0
5	13	Q4:	0
6	10	Q2:	0
7	23	Q1:	0
8	36	Q4:	0
9	11	Q1:	3
10	39	Q0:	3
11	22	Q4:	1
12	29	Q4:	2
13	39	Q1:	3
14	17	Q1:	3
15	34	Q1:	3
16	30	Q4:	0
17	26	Q0:	0
18	39	Q2:	1
19	11	Q4:	3
20	10	Q1:	1
21	29	Q2:	1
22	19	Q1:	1
23	38	Q2:	0
24	40	Q0:	2
25	35	Q0:	2
26	13	Q4:	1	20
27	14	Q4:	1
28	19	Q4:	0
29	24	Q3:	0
30	30	Q3:	0
31	40	Q1:	0
32	20	Q3:	3
33	31	Q3:	1
34	29	Q1:	2	26
35	10	Q1:	2	12
36	19	Q0:	2	34
37	12	Q4:	1
38	31	Q4:	2	29
39	15	Q4:	1
40	30	Q4:	1
41	30	Q2:	3	19
42	29	Q2:	1
43	34	Q4:	0
44	36	Q3:	1
45	21	Q3:	0	44
46	33	Q2:	2	30	16	22
47	9	Q1:	0
48	24	Q4:	2
49	35	Q1:	1	19
50	15	Q1:	1	36
51	27	Q1:	1
52	38	Q4:	2
53	25	Q1:	1	9
54	15	Q1:	1
55	32	Q3:	0	52
56	24	Q4:	3	15
57	21	Q3:	3
58	23	Q4:	3
59	39	Q3:	2	12
60	19	Q3:	1
61	17	Q2:	2	56	16
62	25	Q2:	1
63	39	Q1:	2	45
64	22	Q1:	0
65	21	Q4:	0
66	37	Q2:	1
67	15	Q2:	2	31
68	36	Q2:	3
69	34	Q1:	2	31
70	38	Q3:	0	41
71	15	Q1:	2	56
72	20	Q0:	2
73	13	Q0:	2
74	9	Q1:	3	41	64	33	5
75	31	Q1:	0	38	72
76	19	Q0:	2	34
77	37	Q0:	2	18
78	9	Q3:	2	27
79	19	Q3:	2
80	29	Q0:	2	55	41	26	11
81	14	Q0:	3
82	31	Q0:	3	31	46
83	30	Q2:	1	39
84	34	Q1:	1	38	71
85	17	Q2:	3	70
86	13	Q4:	2	48	75
87	17	Q1:	1
88	15	Q4:	1
89	27	Q4:	3	70	33
90	11	Q3:	1	88	11	5
91	37	Q3:	1	28	59
92	11	Q1:	3	22	54
93	23	Q1:	1
94	12	Q2:	0	86
95	23	Q1:	1
96	26	Q0:	0	8
97	17	Q4:	3	81	60
98	36	Q1:	0	17
99	20	Q2:	2	32	20
100	38	Q2:	3	51	62
========================================================== 